
===== New CPLEX run =====
Instance: /home/yorig/tuner/mpils-tests/instances/miplib/easy/lotsize.mps
Config: /scratch/yorig/mpils-results-grid-seconds-5-watchdog/easy/24proc/seed-5/4_lotsize_seed-5_20260504_011421/iterated_local_search/run_2_worker_1/ils_config_12817235577157619073.prm
========================

Selected objective sense:  MINIMIZE
Selected objective  name:  R1921
Selected RHS        name:  B
Selected bound      name:  BOUND
Wall watchdog: enabled factor=1 grace=1 limit=6 seconds
Version identifier: 22.1.2.0 | 2024-11-26 | 0edbb82fd
CPXPARAM_Threads                                 8
CPXPARAM_Parallel                                1
CPXPARAM_MIP_Cuts_FlowCovers                     1
CPXPARAM_MIP_Cuts_Implied                        -1
CPXPARAM_MIP_Cuts_GUBCovers                      2
CPXPARAM_MIP_Limits_GomoryCand                   100
CPXPARAM_MIP_Cuts_Gomory                         -1
CPXPARAM_MIP_Cuts_PathCut                        1
CPXPARAM_MIP_Cuts_MIRCut                         2
CPXPARAM_MIP_Cuts_Disjunctive                    2
CPXPARAM_Emphasis_MIP                            4
CPXPARAM_TimeLimit                               5
CPXPARAM_MIP_Limits_CutsFactor                   8
Tried aggregator 1 time.
MIP Presolve eliminated 595 rows and 0 columns.
MIP Presolve added 1190 rows and 0 columns.
MIP Presolve modified 10 coefficients.
Reduced MIP has 2515 rows, 2985 columns, and 7755 nonzeros.
Reduced MIP has 1195 binaries, 0 generals, 0 SOSs, and 0 indicators.
Presolve time = 0.00 sec. (4.53 ticks)
Probing fixed 0 vars, tightened 5487 bounds.
Probing time = 0.01 sec. (18.38 ticks)
Tried aggregator 2 times.
Detecting symmetries...
MIP Presolve modified 1206 coefficients.
Aggregator did 10 substitutions.
Reduced MIP has 2505 rows, 2975 columns, and 7735 nonzeros.
Reduced MIP has 1195 binaries, 0 generals, 0 SOSs, and 0 indicators.
Presolve time = 0.00 sec. (6.66 ticks)
Probing fixed 0 vars, tightened 2401 bounds.
Probing time = 0.00 sec. (6.41 ticks)
Clique table members: 190.
MIP emphasis: hidden feasible solutions.
MIP search method: dynamic search.
Parallel mode: deterministic, using up to 8 threads.
Root relaxation solution time = 0.01 sec. (9.71 ticks)

        Nodes                                         Cuts/
   Node  Left     Objective  IInf  Best Integer    Best Bound    ItCnt     Gap

      0     0   348385.3466   472                 348385.3466      882         
      0     0   585166.2537   434                   Cuts: 726     1816         
      0     0   814962.3663   700                   Cuts: 726     2664         
      0     0   940421.0460   680                   Cuts: 726     3356         
*     0+    0                       1.01740e+07   940421.0460            90.76%
*     0+    0                      7973370.0000   940421.0460            88.21%
      0     0  1029139.4588   751  7973370.0000     Cuts: 726     4052   87.09%
      0     0  1098017.0855   774  7973370.0000     Cuts: 726     4742   86.23%
Detecting symmetries...
*     0+    0                      1940615.0000  1098017.0855            43.42%
      0     0  1165304.4571   761  1940615.0000     Cuts: 726     5461   39.95%
      0     0  1196179.3286   773  1940615.0000     Cuts: 705     6041   38.36%
      0     0  1220293.1549   781  1940615.0000     Cuts: 640     6545   37.12%
      0     0  1236480.4866   758  1940615.0000     Cuts: 439     6992   36.28%
      0     0  1251058.6422   795  1940615.0000     Cuts: 517     7400   35.53%
      0     0  1263093.1803   833  1940615.0000     Cuts: 465     7813   34.91%
      0     0  1270125.2873   801  1940615.0000     Cuts: 368     8130   34.55%
      0     0  1276970.7749   852  1940615.0000     Cuts: 360     8436   34.20%
      0     0  1282381.7492   841  1940615.0000     Cuts: 312     8692   33.92%
      0     0  1286414.1221   831  1940615.0000     Cuts: 174     8949   33.71%
      0     0  1290275.6086   846  1940615.0000     Cuts: 198     9167   33.51%
      0     0  1292512.3038   847  1940615.0000     Cuts: 218     9365   33.40%
      0     0  1295165.2092   840  1940615.0000     Cuts: 202     9526   33.26%
      0     0  1298234.2032   832  1940615.0000     Cuts: 185     9687   33.10%
      0     0  1299700.4601   842  1940615.0000     Cuts: 162     9818   33.03%
      0     0  1300977.2946   851  1940615.0000     Cuts: 152     9964   32.96%
      0     0  1301949.9686   851  1940615.0000     Cuts: 146    10094   32.91%
      0     0  1303039.8233   877  1940615.0000     Cuts: 121    10260   32.85%
      0     0  1304094.6720   871  1940615.0000     Cuts: 138    10392   32.80%
      0     0  1304826.5330   873  1940615.0000     Cuts: 107    10504   32.76%
      0     0  1305530.6658   878  1940615.0000      Cuts: 92    10608   32.73%
      0     0  1306234.6005   880  1940615.0000      Cuts: 93    10718   32.69%
      0     0  1306864.9181   875  1940615.0000      Cuts: 99    10809   32.66%
      0     0  1307224.0662   860  1940615.0000      Cuts: 60    10886   32.64%
      0     0  1307641.0547   864  1940615.0000      Cuts: 46    10946   32.62%
      0     0  1307902.3756   869  1940615.0000      Cuts: 42    10998   32.60%
*     0+    0                      1908763.0000  1307902.3756            31.48%
Advanced basis not built.

GUB cover cuts applied:  0
Cover cuts applied:  10
Flow cuts applied:  461
Mixed integer rounding cuts applied:  1047
Flow path cuts applied:  33
Multi commodity flow cuts applied:  41
Disjunctive cuts applied:  0
Cone linearizations applied:  0

Root node processing (before b&c):
  Real time             =    5.01 sec. (8165.02 ticks)
Parallel b&c, 8 threads:
  Real time             =    0.00 sec. (0.00 ticks)
  Sync time (average)   =    0.00 sec.
  Wait time (average)   =    0.00 sec.
                          ------------
Total (root+branch&cut) =    5.01 sec. (8165.02 ticks)
Gap: 31.48%
Upper bound: 1.90876e+06
Lower bound: 1.3079e+06
Termination status: Normal
End of CPLEX run. Time: 5.0122 seconds

===== New CPLEX run =====
Instance: /home/yorig/tuner/mpils-tests/instances/miplib/easy/lotsize.mps
Config: /scratch/yorig/mpils-results-grid-seconds-5-watchdog/easy/24proc/seed-5/4_lotsize_seed-5_20260504_011421/iterated_local_search/run_2_worker_1/ils_config_13986009038398978204.prm
========================

Selected objective sense:  MINIMIZE
Selected objective  name:  R1921
Selected RHS        name:  B
Selected bound      name:  BOUND
Wall watchdog: enabled factor=1 grace=1 limit=6 seconds
Version identifier: 22.1.2.0 | 2024-11-26 | 0edbb82fd
CPXPARAM_Threads                                 8
CPXPARAM_Parallel                                1
CPXPARAM_MIP_Cuts_FlowCovers                     1
CPXPARAM_MIP_Cuts_Implied                        -1
CPXPARAM_MIP_Cuts_GUBCovers                      2
CPXPARAM_MIP_Limits_GomoryCand                   100
CPXPARAM_MIP_Cuts_Gomory                         -1
CPXPARAM_MIP_Cuts_PathCut                        1
CPXPARAM_MIP_Cuts_MIRCut                         2
CPXPARAM_MIP_Cuts_Disjunctive                    2
CPXPARAM_Emphasis_MIP                            4
CPXPARAM_TimeLimit                               5
CPXPARAM_MIP_Limits_CutsFactor                   4
Tried aggregator 1 time.
MIP Presolve eliminated 595 rows and 0 columns.
MIP Presolve added 1190 rows and 0 columns.
MIP Presolve modified 10 coefficients.
Reduced MIP has 2515 rows, 2985 columns, and 7755 nonzeros.
Reduced MIP has 1195 binaries, 0 generals, 0 SOSs, and 0 indicators.
Presolve time = 0.00 sec. (4.53 ticks)
Probing fixed 0 vars, tightened 5487 bounds.
Probing time = 0.01 sec. (18.38 ticks)
Tried aggregator 2 times.
Detecting symmetries...
MIP Presolve modified 1206 coefficients.
Aggregator did 10 substitutions.
Reduced MIP has 2505 rows, 2975 columns, and 7735 nonzeros.
Reduced MIP has 1195 binaries, 0 generals, 0 SOSs, and 0 indicators.
Presolve time = 0.00 sec. (6.66 ticks)
Probing fixed 0 vars, tightened 2401 bounds.
Probing time = 0.00 sec. (6.41 ticks)
Clique table members: 190.
MIP emphasis: hidden feasible solutions.
MIP search method: dynamic search.
Parallel mode: deterministic, using up to 8 threads.
Root relaxation solution time = 0.01 sec. (9.71 ticks)

        Nodes                                         Cuts/
   Node  Left     Objective  IInf  Best Integer    Best Bound    ItCnt     Gap

      0     0   348385.3466   472                 348385.3466      882         
      0     0   585166.2537   434                   Cuts: 726     1816         
      0     0   814962.3663   700                   Cuts: 726     2664         
      0     0   940421.0460   680                   Cuts: 726     3356         
*     0+    0                       1.01740e+07   940421.0460            90.76%
*     0+    0                      7973370.0000   940421.0460            88.21%
      0     0  1029139.4588   751  7973370.0000     Cuts: 726     4052   87.09%
      0     0  1098017.0855   774  7973370.0000     Cuts: 726     4742   86.23%
Detecting symmetries...
*     0+    0                      1940615.0000  1098017.0855            43.42%
      0     0  1165304.4571   761  1940615.0000     Cuts: 726     5461   39.95%
      0     0  1196179.3286   773  1940615.0000     Cuts: 705     6041   38.36%
      0     0  1220293.1549   781  1940615.0000     Cuts: 640     6545   37.12%
      0     0  1236480.4866   758  1940615.0000     Cuts: 439     6992   36.28%
      0     0  1251058.6422   795  1940615.0000     Cuts: 517     7400   35.53%
      0     0  1263093.1803   833  1940615.0000     Cuts: 465     7813   34.91%
      0     0  1270125.2873   801  1940615.0000     Cuts: 368     8130   34.55%
      0     0  1276970.7749   852  1940615.0000     Cuts: 360     8436   34.20%
      0     0  1282381.7492   841  1940615.0000     Cuts: 312     8692   33.92%
      0     0  1286414.1221   831  1940615.0000     Cuts: 174     8949   33.71%
      0     0  1290275.6086   846  1940615.0000     Cuts: 198     9167   33.51%
      0     0  1292512.3038   847  1940615.0000     Cuts: 218     9365   33.40%
      0     0  1295165.2092   840  1940615.0000     Cuts: 202     9526   33.26%
      0     0  1298234.2032   832  1940615.0000     Cuts: 185     9687   33.10%
      0     0  1299700.4601   842  1940615.0000     Cuts: 162     9818   33.03%
      0     0  1300977.2946   851  1940615.0000     Cuts: 152     9964   32.96%
      0     0  1301949.9686   851  1940615.0000     Cuts: 146    10094   32.91%
      0     0  1303039.8233   877  1940615.0000     Cuts: 121    10260   32.85%
      0     0  1304094.6720   871  1940615.0000     Cuts: 138    10392   32.80%
      0     0  1304826.5330   873  1940615.0000     Cuts: 107    10504   32.76%
      0     0  1305530.6658   878  1940615.0000      Cuts: 92    10608   32.73%
      0     0  1306234.6005   880  1940615.0000      Cuts: 93    10718   32.69%
      0     0  1306864.9181   875  1940615.0000      Cuts: 99    10809   32.66%
      0     0  1307224.0662   860  1940615.0000      Cuts: 60    10886   32.64%
      0     0  1307641.0547   864  1940615.0000      Cuts: 46    10946   32.62%
      0     0  1307902.3756   869  1940615.0000      Cuts: 42    10998   32.60%
*     0+    0                      1908763.0000  1307902.3756            31.48%
Advanced basis not built.

GUB cover cuts applied:  0
Cover cuts applied:  10
Flow cuts applied:  461
Mixed integer rounding cuts applied:  1047
Flow path cuts applied:  33
Multi commodity flow cuts applied:  41
Disjunctive cuts applied:  0
Cone linearizations applied:  0

Root node processing (before b&c):
  Real time             =    5.01 sec. (8170.03 ticks)
Parallel b&c, 8 threads:
  Real time             =    0.00 sec. (0.00 ticks)
  Sync time (average)   =    0.00 sec.
  Wait time (average)   =    0.00 sec.
                          ------------
Total (root+branch&cut) =    5.01 sec. (8170.03 ticks)
Gap: 31.48%
Upper bound: 1.90876e+06
Lower bound: 1.3079e+06
Termination status: Normal
End of CPLEX run. Time: 5.01238 seconds

===== New CPLEX run =====
Instance: /home/yorig/tuner/mpils-tests/instances/miplib/easy/lotsize.mps
Config: /scratch/yorig/mpils-results-grid-seconds-5-watchdog/easy/24proc/seed-5/4_lotsize_seed-5_20260504_011421/iterated_local_search/run_2_worker_1/ils_config_10138011034315432262.prm
========================

Selected objective sense:  MINIMIZE
Selected objective  name:  R1921
Selected RHS        name:  B
Selected bound      name:  BOUND
Wall watchdog: enabled factor=1 grace=1 limit=6 seconds
Version identifier: 22.1.2.0 | 2024-11-26 | 0edbb82fd
CPXPARAM_Threads                                 8
CPXPARAM_Parallel                                1
CPXPARAM_MIP_Cuts_Covers                         -1
CPXPARAM_MIP_Cuts_FlowCovers                     1
CPXPARAM_MIP_Cuts_Implied                        -1
CPXPARAM_MIP_Cuts_GUBCovers                      2
CPXPARAM_MIP_Limits_GomoryCand                   100
CPXPARAM_MIP_Cuts_Gomory                         -1
CPXPARAM_MIP_Cuts_PathCut                        1
CPXPARAM_MIP_Cuts_MIRCut                         2
CPXPARAM_MIP_Cuts_Disjunctive                    2
CPXPARAM_Emphasis_MIP                            4
CPXPARAM_TimeLimit                               5
CPXPARAM_MIP_Limits_CutsFactor                   8
Tried aggregator 1 time.
MIP Presolve eliminated 595 rows and 0 columns.
MIP Presolve added 1190 rows and 0 columns.
MIP Presolve modified 10 coefficients.
Reduced MIP has 2515 rows, 2985 columns, and 7755 nonzeros.
Reduced MIP has 1195 binaries, 0 generals, 0 SOSs, and 0 indicators.
Presolve time = 0.00 sec. (4.53 ticks)
Probing fixed 0 vars, tightened 5487 bounds.
Probing time = 0.01 sec. (18.38 ticks)
Tried aggregator 2 times.
Detecting symmetries...
MIP Presolve modified 1206 coefficients.
Aggregator did 10 substitutions.
Reduced MIP has 2505 rows, 2975 columns, and 7735 nonzeros.
Reduced MIP has 1195 binaries, 0 generals, 0 SOSs, and 0 indicators.
Presolve time = 0.00 sec. (6.66 ticks)
Probing fixed 0 vars, tightened 2401 bounds.
Probing time = 0.00 sec. (6.41 ticks)
Clique table members: 190.
MIP emphasis: hidden feasible solutions.
MIP search method: dynamic search.
Parallel mode: deterministic, using up to 8 threads.
Root relaxation solution time = 0.01 sec. (9.71 ticks)

        Nodes                                         Cuts/
   Node  Left     Objective  IInf  Best Integer    Best Bound    ItCnt     Gap

      0     0   348385.3466   472                 348385.3466      882         
      0     0   585166.2537   434                   Cuts: 726     1816         
      0     0   812902.7143   705                   Cuts: 726     2660         
      0     0   940829.1610   691                   Cuts: 726     3340         
*     0+    0                       1.01740e+07   940829.1610            90.75%
*     0+    0                      7973370.0000   940829.1610            88.20%
      0     0  1027656.8876   754  7973370.0000     Cuts: 726     3996   87.11%
      0     0  1094184.1458   754  7973370.0000     Cuts: 726     4659   86.28%
Detecting symmetries...
*     0+    0                      1940615.0000  1094184.1458            43.62%
      0     0  1163266.5077   761  1940615.0000     Cuts: 726     5351   40.06%
      0     0  1198112.7711   773  1940615.0000     Cuts: 692     5936   38.26%
      0     0  1227533.4848   753  1940615.0000     Cuts: 593     6543   36.75%
      0     0  1242122.9031   799  1940615.0000     Cuts: 478     6993   35.99%
      0     0  1253817.1637   772  1940615.0000     Cuts: 447     7374   35.39%
      0     0  1262899.5579   812  1940615.0000     Cuts: 392     7736   34.92%
      0     0  1268413.8157   823  1940615.0000     Cuts: 358     8027   34.64%
      0     0  1274014.3806   807  1940615.0000     Cuts: 275     8278   34.35%
      0     0  1279468.2695   839  1940615.0000     Cuts: 270     8541   34.07%
      0     0  1284649.0753   862  1940615.0000     Cuts: 252     8771   33.80%
      0     0  1290276.3981   836  1940615.0000     Cuts: 247     9037   33.51%
      0     0  1294038.4613   858  1940615.0000     Cuts: 248     9294   33.32%
      0     0  1296961.3177   844  1940615.0000     Cuts: 204     9511   33.17%
      0     0  1298917.4452   875  1940615.0000     Cuts: 215     9720   33.07%
      0     0  1300872.9823   882  1940615.0000     Cuts: 197     9968   32.97%
      0     0  1302805.2266   878  1940615.0000     Cuts: 168    10137   32.87%
      0     0  1304936.2903   886  1940615.0000     Cuts: 112    10287   32.76%
      0     0  1306841.7496   875  1940615.0000     Cuts: 168    10408   32.66%
      0     0  1307882.2995   889  1940615.0000     Cuts: 113    10511   32.60%
      0     0  1308827.9701   881  1940615.0000     Cuts: 125    10609   32.56%
      0     0  1309415.6561   889  1940615.0000      Cuts: 48    10679   32.53%
      0     0  1310197.7123   883  1940615.0000      Cuts: 46    10759   32.49%
      0     0  1310781.9888   867  1940615.0000      Cuts: 55    10839   32.46%
      0     0  1311094.3838   875  1940615.0000      Cuts: 76    10910   32.44%
      0     0  1311189.5421   888  1940615.0000      Cuts: 34    10963   32.43%
*     0+    0                      1937822.0000  1311189.5421            32.34%
Advanced basis not built.

GUB cover cuts applied:  0
Clique cuts applied:  5
Flow cuts applied:  473
Mixed integer rounding cuts applied:  1074
Flow path cuts applied:  38
Multi commodity flow cuts applied:  30
Disjunctive cuts applied:  0
Cone linearizations applied:  0

Root node processing (before b&c):
  Real time             =    5.01 sec. (8114.47 ticks)
Parallel b&c, 8 threads:
  Real time             =    0.00 sec. (0.00 ticks)
  Sync time (average)   =    0.00 sec.
  Wait time (average)   =    0.00 sec.
                          ------------
Total (root+branch&cut) =    5.01 sec. (8114.47 ticks)
Gap: 32.34%
Upper bound: 1.93782e+06
Lower bound: 1.31119e+06
Termination status: Normal
End of CPLEX run. Time: 5.01738 seconds

===== New CPLEX run =====
Instance: /home/yorig/tuner/mpils-tests/instances/miplib/easy/lotsize.mps
Config: /scratch/yorig/mpils-results-grid-seconds-5-watchdog/easy/24proc/seed-5/4_lotsize_seed-5_20260504_011421/iterated_local_search/run_2_worker_1/ils_config_8902933023848823384.prm
========================

Selected objective sense:  MINIMIZE
Selected objective  name:  R1921
Selected RHS        name:  B
Selected bound      name:  BOUND
Wall watchdog: enabled factor=1 grace=1 limit=6 seconds
Version identifier: 22.1.2.0 | 2024-11-26 | 0edbb82fd
CPXPARAM_Threads                                 8
CPXPARAM_Parallel                                1
CPXPARAM_MIP_Cuts_FlowCovers                     1
CPXPARAM_MIP_Cuts_Implied                        -1
CPXPARAM_MIP_Cuts_GUBCovers                      2
CPXPARAM_MIP_Limits_GomoryCand                   100
CPXPARAM_MIP_Cuts_Gomory                         -1
CPXPARAM_MIP_Cuts_PathCut                        1
CPXPARAM_MIP_Cuts_MIRCut                         2
CPXPARAM_MIP_Cuts_Disjunctive                    -1
CPXPARAM_Emphasis_MIP                            4
CPXPARAM_TimeLimit                               5
CPXPARAM_MIP_Limits_CutsFactor                   8
Tried aggregator 1 time.
MIP Presolve eliminated 595 rows and 0 columns.
MIP Presolve added 1190 rows and 0 columns.
MIP Presolve modified 10 coefficients.
Reduced MIP has 2515 rows, 2985 columns, and 7755 nonzeros.
Reduced MIP has 1195 binaries, 0 generals, 0 SOSs, and 0 indicators.
Presolve time = 0.00 sec. (4.53 ticks)
Probing fixed 0 vars, tightened 5487 bounds.
Probing time = 0.01 sec. (18.38 ticks)
Tried aggregator 2 times.
Detecting symmetries...
MIP Presolve modified 1206 coefficients.
Aggregator did 10 substitutions.
Reduced MIP has 2505 rows, 2975 columns, and 7735 nonzeros.
Reduced MIP has 1195 binaries, 0 generals, 0 SOSs, and 0 indicators.
Presolve time = 0.00 sec. (6.66 ticks)
Probing fixed 0 vars, tightened 2401 bounds.
Probing time = 0.00 sec. (6.41 ticks)
Clique table members: 190.
MIP emphasis: hidden feasible solutions.
MIP search method: dynamic search.
Parallel mode: deterministic, using up to 8 threads.
Root relaxation solution time = 0.01 sec. (9.71 ticks)

        Nodes                                         Cuts/
   Node  Left     Objective  IInf  Best Integer    Best Bound    ItCnt     Gap

      0     0   348385.3466   472                 348385.3466      882         
      0     0   585166.2537   434                   Cuts: 726     1816         
      0     0   814962.3663   700                   Cuts: 726     2664         
      0     0   940421.0460   680                   Cuts: 726     3356         
*     0+    0                       1.01740e+07   940421.0460            90.76%
*     0+    0                      7973370.0000   940421.0460            88.21%
      0     0  1029139.4588   751  7973370.0000     Cuts: 726     4052   87.09%
      0     0  1098017.0855   774  7973370.0000     Cuts: 726     4742   86.23%
Detecting symmetries...
*     0+    0                      1940615.0000  1098017.0855            43.42%
      0     0  1165304.4571   761  1940615.0000     Cuts: 726     5461   39.95%
      0     0  1196179.3286   773  1940615.0000     Cuts: 705     6041   38.36%
      0     0  1220293.1549   781  1940615.0000     Cuts: 640     6545   37.12%
      0     0  1236480.4866   758  1940615.0000     Cuts: 439     6992   36.28%
      0     0  1251058.6422   795  1940615.0000     Cuts: 517     7400   35.53%
      0     0  1263093.1803   833  1940615.0000     Cuts: 465     7813   34.91%
      0     0  1270125.2873   801  1940615.0000     Cuts: 368     8130   34.55%
      0     0  1276970.7749   852  1940615.0000     Cuts: 360     8436   34.20%
      0     0  1282381.7492   841  1940615.0000     Cuts: 312     8692   33.92%
      0     0  1286414.1221   831  1940615.0000     Cuts: 174     8949   33.71%
      0     0  1290275.6086   846  1940615.0000     Cuts: 198     9167   33.51%
      0     0  1292512.3038   847  1940615.0000     Cuts: 218     9365   33.40%
      0     0  1295165.2092   840  1940615.0000     Cuts: 202     9526   33.26%
      0     0  1298234.2032   832  1940615.0000     Cuts: 185     9687   33.10%
      0     0  1299700.4601   842  1940615.0000     Cuts: 162     9818   33.03%
      0     0  1300977.2946   851  1940615.0000     Cuts: 152     9964   32.96%
      0     0  1301949.9686   851  1940615.0000     Cuts: 146    10094   32.91%
      0     0  1303039.8233   877  1940615.0000     Cuts: 121    10260   32.85%
      0     0  1304094.6720   871  1940615.0000     Cuts: 138    10392   32.80%
      0     0  1304826.5330   873  1940615.0000     Cuts: 107    10504   32.76%
      0     0  1305530.6658   878  1940615.0000      Cuts: 92    10608   32.73%
      0     0  1306234.6005   880  1940615.0000      Cuts: 93    10718   32.69%
      0     0  1306864.9181   875  1940615.0000      Cuts: 99    10809   32.66%
      0     0  1307224.0662   860  1940615.0000      Cuts: 60    10886   32.64%
      0     0  1307641.0547   864  1940615.0000      Cuts: 46    10946   32.62%
      0     0  1307902.3756   869  1940615.0000      Cuts: 42    10998   32.60%
*     0+    0                      1908763.0000  1307902.3756            31.48%
Advanced basis not built.

GUB cover cuts applied:  0
Cover cuts applied:  10
Flow cuts applied:  461
Mixed integer rounding cuts applied:  1047
Flow path cuts applied:  33
Multi commodity flow cuts applied:  41

Root node processing (before b&c):
  Real time             =    5.01 sec. (8169.59 ticks)
Parallel b&c, 8 threads:
  Real time             =    0.00 sec. (0.00 ticks)
  Sync time (average)   =    0.00 sec.
  Wait time (average)   =    0.00 sec.
                          ------------
Total (root+branch&cut) =    5.01 sec. (8169.59 ticks)
Gap: 31.48%
Upper bound: 1.90876e+06
Lower bound: 1.3079e+06
Termination status: Normal
End of CPLEX run. Time: 5.01372 seconds

===== New CPLEX run =====
Instance: /home/yorig/tuner/mpils-tests/instances/miplib/easy/lotsize.mps
Config: /scratch/yorig/mpils-results-grid-seconds-5-watchdog/easy/24proc/seed-5/4_lotsize_seed-5_20260504_011421/iterated_local_search/run_2_worker_1/ils_config_9358657318571670029.prm
========================

Selected objective sense:  MINIMIZE
Selected objective  name:  R1921
Selected RHS        name:  B
Selected bound      name:  BOUND
Wall watchdog: enabled factor=1 grace=1 limit=6 seconds
Version identifier: 22.1.2.0 | 2024-11-26 | 0edbb82fd
CPXPARAM_Threads                                 8
CPXPARAM_Parallel                                1
CPXPARAM_MIP_Cuts_Cliques                        1
CPXPARAM_MIP_Cuts_FlowCovers                     1
CPXPARAM_MIP_Cuts_Implied                        -1
CPXPARAM_MIP_Cuts_GUBCovers                      2
CPXPARAM_MIP_Limits_GomoryCand                   100
CPXPARAM_MIP_Cuts_Gomory                         -1
CPXPARAM_MIP_Cuts_PathCut                        1
CPXPARAM_MIP_Cuts_MIRCut                         2
CPXPARAM_MIP_Cuts_Disjunctive                    2
CPXPARAM_Emphasis_MIP                            4
CPXPARAM_TimeLimit                               5
CPXPARAM_MIP_Limits_CutsFactor                   8
Tried aggregator 1 time.
MIP Presolve eliminated 595 rows and 0 columns.
MIP Presolve added 1190 rows and 0 columns.
MIP Presolve modified 10 coefficients.
Reduced MIP has 2515 rows, 2985 columns, and 7755 nonzeros.
Reduced MIP has 1195 binaries, 0 generals, 0 SOSs, and 0 indicators.
Presolve time = 0.00 sec. (4.53 ticks)
Probing fixed 0 vars, tightened 5487 bounds.
Probing time = 0.01 sec. (18.38 ticks)
Tried aggregator 2 times.
Detecting symmetries...
MIP Presolve modified 1206 coefficients.
Aggregator did 10 substitutions.
Reduced MIP has 2505 rows, 2975 columns, and 7735 nonzeros.
Reduced MIP has 1195 binaries, 0 generals, 0 SOSs, and 0 indicators.
Presolve time = 0.00 sec. (6.66 ticks)
Probing fixed 0 vars, tightened 2401 bounds.
Probing time = 0.00 sec. (6.41 ticks)
Clique table members: 190.
MIP emphasis: hidden feasible solutions.
MIP search method: dynamic search.
Parallel mode: deterministic, using up to 8 threads.
Root relaxation solution time = 0.01 sec. (9.71 ticks)

        Nodes                                         Cuts/
   Node  Left     Objective  IInf  Best Integer    Best Bound    ItCnt     Gap

      0     0   348385.3466   472                 348385.3466      882         
      0     0   585166.2537   434                   Cuts: 726     1816         
      0     0   814962.3663   700                   Cuts: 726     2664         
      0     0   940421.0460   680                   Cuts: 726     3356         
*     0+    0                       1.01740e+07   940421.0460            90.76%
*     0+    0                      7973370.0000   940421.0460            88.21%
      0     0  1029139.4588   751  7973370.0000     Cuts: 726     4052   87.09%
      0     0  1098017.0855   774  7973370.0000     Cuts: 726     4742   86.23%
Detecting symmetries...
*     0+    0                      1940615.0000  1098017.0855            43.42%
      0     0  1165304.4571   761  1940615.0000     Cuts: 726     5461   39.95%
      0     0  1196179.3286   773  1940615.0000     Cuts: 705     6041   38.36%
      0     0  1220293.1549   781  1940615.0000     Cuts: 640     6545   37.12%
      0     0  1236480.4866   758  1940615.0000     Cuts: 439     6992   36.28%
      0     0  1251058.6422   795  1940615.0000     Cuts: 517     7400   35.53%
      0     0  1263093.1803   833  1940615.0000     Cuts: 465     7813   34.91%
      0     0  1270125.2873   801  1940615.0000     Cuts: 368     8130   34.55%
      0     0  1276970.7749   852  1940615.0000     Cuts: 360     8436   34.20%
      0     0  1282381.7492   841  1940615.0000     Cuts: 312     8692   33.92%
      0     0  1286414.1221   831  1940615.0000     Cuts: 174     8949   33.71%
      0     0  1290275.6086   846  1940615.0000     Cuts: 198     9167   33.51%
      0     0  1292512.3038   847  1940615.0000     Cuts: 218     9365   33.40%
      0     0  1295165.2092   840  1940615.0000     Cuts: 202     9526   33.26%
      0     0  1298234.2032   832  1940615.0000     Cuts: 185     9687   33.10%
      0     0  1299700.4601   842  1940615.0000     Cuts: 162     9818   33.03%
      0     0  1300977.2946   851  1940615.0000     Cuts: 152     9964   32.96%
      0     0  1301949.9686   851  1940615.0000     Cuts: 146    10094   32.91%
      0     0  1303039.8233   877  1940615.0000     Cuts: 121    10260   32.85%
      0     0  1304094.6720   871  1940615.0000     Cuts: 138    10392   32.80%
      0     0  1304826.5330   873  1940615.0000     Cuts: 107    10504   32.76%
      0     0  1305530.6658   878  1940615.0000      Cuts: 92    10608   32.73%
      0     0  1306234.6005   880  1940615.0000      Cuts: 93    10718   32.69%
      0     0  1306864.9181   875  1940615.0000      Cuts: 99    10809   32.66%
      0     0  1307224.0662   860  1940615.0000      Cuts: 60    10886   32.64%
      0     0  1307641.0547   864  1940615.0000      Cuts: 46    10946   32.62%
      0     0  1307902.3756   869  1940615.0000      Cuts: 42    10998   32.60%
*     0+    0                      1908763.0000  1307902.3756            31.48%
Advanced basis not built.

GUB cover cuts applied:  0
Clique cuts applied:  0
Cover cuts applied:  10
Flow cuts applied:  461
Mixed integer rounding cuts applied:  1047
Flow path cuts applied:  33
Multi commodity flow cuts applied:  41
Disjunctive cuts applied:  0
Cone linearizations applied:  0

Root node processing (before b&c):
  Real time             =    5.01 sec. (8179.57 ticks)
Parallel b&c, 8 threads:
  Real time             =    0.00 sec. (0.00 ticks)
  Sync time (average)   =    0.00 sec.
  Wait time (average)   =    0.00 sec.
                          ------------
Total (root+branch&cut) =    5.01 sec. (8179.57 ticks)
Gap: 31.48%
Upper bound: 1.90876e+06
Lower bound: 1.3079e+06
Termination status: Normal
End of CPLEX run. Time: 5.0166 seconds

===== New CPLEX run =====
Instance: /home/yorig/tuner/mpils-tests/instances/miplib/easy/lotsize.mps
Config: /scratch/yorig/mpils-results-grid-seconds-5-watchdog/easy/24proc/seed-5/4_lotsize_seed-5_20260504_011421/iterated_local_search/run_2_worker_1/ils_config_16491858327905226216.prm
========================

Selected objective sense:  MINIMIZE
Selected objective  name:  R1921
Selected RHS        name:  B
Selected bound      name:  BOUND
Wall watchdog: enabled factor=1 grace=1 limit=6 seconds
Version identifier: 22.1.2.0 | 2024-11-26 | 0edbb82fd
CPXPARAM_Threads                                 8
CPXPARAM_Parallel                                1
CPXPARAM_MIP_Cuts_FlowCovers                     1
CPXPARAM_MIP_Cuts_Implied                        1
CPXPARAM_MIP_Cuts_GUBCovers                      2
CPXPARAM_MIP_Limits_GomoryCand                   100
CPXPARAM_MIP_Cuts_Gomory                         -1
CPXPARAM_MIP_Cuts_PathCut                        1
CPXPARAM_MIP_Cuts_MIRCut                         2
CPXPARAM_MIP_Cuts_Disjunctive                    2
CPXPARAM_Emphasis_MIP                            4
CPXPARAM_TimeLimit                               5
CPXPARAM_MIP_Limits_CutsFactor                   8
Tried aggregator 1 time.
MIP Presolve eliminated 595 rows and 0 columns.
MIP Presolve added 1190 rows and 0 columns.
MIP Presolve modified 10 coefficients.
Reduced MIP has 2515 rows, 2985 columns, and 7755 nonzeros.
Reduced MIP has 1195 binaries, 0 generals, 0 SOSs, and 0 indicators.
Presolve time = 0.00 sec. (4.53 ticks)
Probing fixed 0 vars, tightened 5487 bounds.
Probing time = 0.01 sec. (18.38 ticks)
Tried aggregator 2 times.
Detecting symmetries...
MIP Presolve modified 1206 coefficients.
Aggregator did 10 substitutions.
Reduced MIP has 2505 rows, 2975 columns, and 7735 nonzeros.
Reduced MIP has 1195 binaries, 0 generals, 0 SOSs, and 0 indicators.
Presolve time = 0.00 sec. (6.66 ticks)
Probing fixed 0 vars, tightened 2401 bounds.
Probing time = 0.00 sec. (6.41 ticks)
Clique table members: 190.
MIP emphasis: hidden feasible solutions.
MIP search method: dynamic search.
Parallel mode: deterministic, using up to 8 threads.
Root relaxation solution time = 0.01 sec. (9.71 ticks)

        Nodes                                         Cuts/
   Node  Left     Objective  IInf  Best Integer    Best Bound    ItCnt     Gap

      0     0   348385.3466   472                 348385.3466      882         
      0     0   583577.4049   435                   Cuts: 726     1819         
      0     0   818290.4051   692                   Cuts: 726     2653         
*     0+    0                       1.01740e+07   818290.4051            91.96%
*     0+    0                      7973370.0000   818290.4051            89.74%
      0     0   947113.9594   686  7973370.0000     Cuts: 726     3332   88.12%
      0     0  1041522.9402   741  7973370.0000     Cuts: 726     3991   86.94%
      0     0  1104591.7104   745  7973370.0000     Cuts: 726     4646   86.15%
Detecting symmetries...
*     0+    0                      1940615.0000  1104591.7104            43.08%
      0     0  1147736.4040   739  1940615.0000     Cuts: 666     5259   40.86%
      0     0  1194465.8498   772  1940615.0000     Cuts: 726     5901   38.45%
      0     0  1220731.8445   728  1940615.0000     Cuts: 660     6435   37.10%
      0     0  1238440.3055   743  1940615.0000     Cuts: 515     6954   36.18%
      0     0  1250054.1736   774  1940615.0000     Cuts: 437     7394   35.58%
      0     0  1258330.3348   799  1940615.0000     Cuts: 391     7733   35.16%
      0     0  1266683.3850   816  1940615.0000     Cuts: 324     8061   34.73%
      0     0  1273373.1938   818  1940615.0000     Cuts: 395     8378   34.38%
      0     0  1277477.8474   829  1940615.0000     Cuts: 321     8659   34.17%
      0     0  1281630.4986   823  1940615.0000     Cuts: 306     8896   33.96%
      0     0  1285158.5590   836  1940615.0000     Cuts: 223     9133   33.78%
      0     0  1287844.8265   829  1940615.0000     Cuts: 222     9347   33.64%
      0     0  1290830.4513   834  1940615.0000     Cuts: 180     9512   33.48%
      0     0  1294040.0268   837  1940615.0000     Cuts: 261     9689   33.32%
      0     0  1295959.5289   833  1940615.0000     Cuts: 157     9809   33.22%
      0     0  1298389.2968   827  1940615.0000     Cuts: 142     9955   33.09%
      0     0  1300348.5280   840  1940615.0000     Cuts: 177    10098   32.99%
      0     0  1301670.2886   821  1940615.0000     Cuts: 113    10220   32.92%
      0     0  1302690.7844   840  1940615.0000     Cuts: 113    10359   32.87%
*     0+    0                      1888666.0000  1302690.7844            31.03%
      0     0  1303868.9589   829  1888666.0000      Cuts: 97    10453   30.96%
      0     0  1304595.6572   832  1888666.0000      Cuts: 92    10529   30.93%
      0     0  1305192.1005   821  1888666.0000      Cuts: 72    10614   30.89%
      0     0  1305719.6045   821  1888666.0000      Cuts: 64    10672   30.87%
      0     0  1306360.5116   806  1888666.0000      Cuts: 49    10733   30.83%
      0     0  1306687.3387   816  1888666.0000      Cuts: 38    10791   30.81%
      0     0  1307265.1037   826  1888666.0000      Cuts: 31    10845   30.78%
      0     0  1307401.1964   840  1888666.0000      Cuts: 43    10887   30.78%
*     0+    0                      1888450.0000  1307401.1964            30.77%
Advanced basis not built.

GUB cover cuts applied:  0
Clique cuts applied:  1
Cover cuts applied:  10
Implied bound cuts applied:  19
Flow cuts applied:  498
Mixed integer rounding cuts applied:  1034
Flow path cuts applied:  41
Multi commodity flow cuts applied:  36
Disjunctive cuts applied:  0
Cone linearizations applied:  0

Root node processing (before b&c):
  Real time             =    5.01 sec. (8056.31 ticks)
Parallel b&c, 8 threads:
  Real time             =    0.00 sec. (0.00 ticks)
  Sync time (average)   =    0.00 sec.
  Wait time (average)   =    0.00 sec.
                          ------------
Total (root+branch&cut) =    5.01 sec. (8056.31 ticks)
Gap: 30.77%
Upper bound: 1.88845e+06
Lower bound: 1.3074e+06
Termination status: Normal
End of CPLEX run. Time: 5.01384 seconds
